\Problem name: IloCplex

Maximize
 obj: id783
Subject To
 id154: id1 + id2 + id3 + id4 + id5 + id6 + id7 + id8 + id9 + id10  = 7
 id156: id11 + id12 + id13 + id14 + id15 + id16 + id17 + id18 + id19 + id20
         = 3
 id158: id21 + id22 + id23 + id24 + id25 + id26 + id27 + id28 + id29 + id30
         = 4
 id160: id31 + id32 + id33 + id34 + id35 + id36 + id37 + id38 + id39 + id40
         = 8
 id162: id41 + id42 + id43 + id44 + id45 + id46 + id47 + id48 + id49 + id50
         = 5
 id164: id51 + id52 + id53 + id54 + id55 + id56 + id57 + id58 + id59 + id60
         = 2
 id166: id61 + id62 + id63 + id64 + id65 + id66 + id67 + id68 + id69 + id70
         = 3
 id168: id71 + id72 + id73 + id74 + id75 + id76 + id77 + id78 + id79 + id80
         = 6
 id170: id81 + id82 + id83 + id84 + id85 + id86 + id87 + id88 + id89 + id90
         = 3
 id172: id91 + id92 + id93 + id94 + id95 + id96 + id97 + id98 + id99 + id100
         = 1
 id174: id101 + id102 + id103 + id104 + id105 + id106 + id107 + id108 + id109
        + id110  = 3
 id176: id111 + id112 + id113 + id114 + id115 + id116 + id117 + id118 + id119
        + id120  = 1
 id178: id121 + id122 + id123 + id124 + id125 + id126 + id127 + id128 + id129
        + id130  = 4
 id180: id131 + id132 + id133 + id134 + id135 + id136 + id137 + id138 + id139
        + id140  = 2
 id182: id141 + id142 + id143 + id144 + id145 + id146 + id147 + id148 + id149
        + id150  = 4
 id185: - id1 - id11 + 2 id51 <= 0
 id188: id1 + id11 - 2 id51 <= 1
 id191: - id2 - id12 + 2 id52 <= 0
 id194: id2 + id12 - 2 id52 <= 1
 id197: - id3 - id13 + 2 id53 <= 0
 id200: id3 + id13 - 2 id53 <= 1
 id203: - id4 - id14 + 2 id54 <= 0
 id206: id4 + id14 - 2 id54 <= 1
 id209: - id5 - id15 + 2 id55 <= 0
 id212: id5 + id15 - 2 id55 <= 1
 id215: - id6 - id16 + 2 id56 <= 0
 id218: id6 + id16 - 2 id56 <= 1
 id221: - id7 - id17 + 2 id57 <= 0
 id224: id7 + id17 - 2 id57 <= 1
 id227: - id8 - id18 + 2 id58 <= 0
 id230: id8 + id18 - 2 id58 <= 1
 id233: - id9 - id19 + 2 id59 <= 0
 id236: id9 + id19 - 2 id59 <= 1
 id239: - id10 - id20 + 2 id60 <= 0
 id242: id10 + id20 - 2 id60 <= 1
 id245: - id1 - id21 + 2 id61 <= 0
 id248: id1 + id21 - 2 id61 <= 1
 id251: - id2 - id22 + 2 id62 <= 0
 id254: id2 + id22 - 2 id62 <= 1
 id257: - id3 - id23 + 2 id63 <= 0
 id260: id3 + id23 - 2 id63 <= 1
 id263: - id4 - id24 + 2 id64 <= 0
 id266: id4 + id24 - 2 id64 <= 1
 id269: - id5 - id25 + 2 id65 <= 0
 id272: id5 + id25 - 2 id65 <= 1
 id275: - id6 - id26 + 2 id66 <= 0
 id278: id6 + id26 - 2 id66 <= 1
 id281: - id7 - id27 + 2 id67 <= 0
 id284: id7 + id27 - 2 id67 <= 1
 id287: - id8 - id28 + 2 id68 <= 0
 id290: id8 + id28 - 2 id68 <= 1
 id293: - id9 - id29 + 2 id69 <= 0
 id296: id9 + id29 - 2 id69 <= 1
 id299: - id10 - id30 + 2 id70 <= 0
 id302: id10 + id30 - 2 id70 <= 1
 id305: - id1 - id31 + 2 id71 <= 0
 id308: id1 + id31 - 2 id71 <= 1
 id311: - id2 - id32 + 2 id72 <= 0
 id314: id2 + id32 - 2 id72 <= 1
 id317: - id3 - id33 + 2 id73 <= 0
 id320: id3 + id33 - 2 id73 <= 1
 id323: - id4 - id34 + 2 id74 <= 0
 id326: id4 + id34 - 2 id74 <= 1
 id329: - id5 - id35 + 2 id75 <= 0
 id332: id5 + id35 - 2 id75 <= 1
 id335: - id6 - id36 + 2 id76 <= 0
 id338: id6 + id36 - 2 id76 <= 1
 id341: - id7 - id37 + 2 id77 <= 0
 id344: id7 + id37 - 2 id77 <= 1
 id347: - id8 - id38 + 2 id78 <= 0
 id350: id8 + id38 - 2 id78 <= 1
 id353: - id9 - id39 + 2 id79 <= 0
 id356: id9 + id39 - 2 id79 <= 1
 id359: - id10 - id40 + 2 id80 <= 0
 id362: id10 + id40 - 2 id80 <= 1
 id365: - id1 - id41 + 2 id81 <= 0
 id368: id1 + id41 - 2 id81 <= 1
 id371: - id2 - id42 + 2 id82 <= 0
 id374: id2 + id42 - 2 id82 <= 1
 id377: - id3 - id43 + 2 id83 <= 0
 id380: id3 + id43 - 2 id83 <= 1
 id383: - id4 - id44 + 2 id84 <= 0
 id386: id4 + id44 - 2 id84 <= 1
 id389: - id5 - id45 + 2 id85 <= 0
 id392: id5 + id45 - 2 id85 <= 1
 id395: - id6 - id46 + 2 id86 <= 0
 id398: id6 + id46 - 2 id86 <= 1
 id401: - id7 - id47 + 2 id87 <= 0
 id404: id7 + id47 - 2 id87 <= 1
 id407: - id8 - id48 + 2 id88 <= 0
 id410: id8 + id48 - 2 id88 <= 1
 id413: - id9 - id49 + 2 id89 <= 0
 id416: id9 + id49 - 2 id89 <= 1
 id419: - id10 - id50 + 2 id90 <= 0
 id422: id10 + id50 - 2 id90 <= 1
 id425: - id11 - id21 + 2 id91 <= 0
 id428: id11 + id21 - 2 id91 <= 1
 id431: - id12 - id22 + 2 id92 <= 0
 id434: id12 + id22 - 2 id92 <= 1
 id437: - id13 - id23 + 2 id93 <= 0
 id440: id13 + id23 - 2 id93 <= 1
 id443: - id14 - id24 + 2 id94 <= 0
 id446: id14 + id24 - 2 id94 <= 1
 id449: - id15 - id25 + 2 id95 <= 0
 id452: id15 + id25 - 2 id95 <= 1
 id455: - id16 - id26 + 2 id96 <= 0
 id458: id16 + id26 - 2 id96 <= 1
 id461: - id17 - id27 + 2 id97 <= 0
 id464: id17 + id27 - 2 id97 <= 1
 id467: - id18 - id28 + 2 id98 <= 0
 id470: id18 + id28 - 2 id98 <= 1
 id473: - id19 - id29 + 2 id99 <= 0
 id476: id19 + id29 - 2 id99 <= 1
 id479: - id20 - id30 + 2 id100 <= 0
 id482: id20 + id30 - 2 id100 <= 1
 id485: - id11 - id31 + 2 id101 <= 0
 id488: id11 + id31 - 2 id101 <= 1
 id491: - id12 - id32 + 2 id102 <= 0
 id494: id12 + id32 - 2 id102 <= 1
 id497: - id13 - id33 + 2 id103 <= 0
 id500: id13 + id33 - 2 id103 <= 1
 id503: - id14 - id34 + 2 id104 <= 0
 id506: id14 + id34 - 2 id104 <= 1
 id509: - id15 - id35 + 2 id105 <= 0
 id512: id15 + id35 - 2 id105 <= 1
 id515: - id16 - id36 + 2 id106 <= 0
 id518: id16 + id36 - 2 id106 <= 1
 id521: - id17 - id37 + 2 id107 <= 0
 id524: id17 + id37 - 2 id107 <= 1
 id527: - id18 - id38 + 2 id108 <= 0
 id530: id18 + id38 - 2 id108 <= 1
 id533: - id19 - id39 + 2 id109 <= 0
 id536: id19 + id39 - 2 id109 <= 1
 id539: - id20 - id40 + 2 id110 <= 0
 id542: id20 + id40 - 2 id110 <= 1
 id545: - id11 - id41 + 2 id111 <= 0
 id548: id11 + id41 - 2 id111 <= 1
 id551: - id12 - id42 + 2 id112 <= 0
 id554: id12 + id42 - 2 id112 <= 1
 id557: - id13 - id43 + 2 id113 <= 0
 id560: id13 + id43 - 2 id113 <= 1
 id563: - id14 - id44 + 2 id114 <= 0
 id566: id14 + id44 - 2 id114 <= 1
 id569: - id15 - id45 + 2 id115 <= 0
 id572: id15 + id45 - 2 id115 <= 1
 id575: - id16 - id46 + 2 id116 <= 0
 id578: id16 + id46 - 2 id116 <= 1
 id581: - id17 - id47 + 2 id117 <= 0
 id584: id17 + id47 - 2 id117 <= 1
 id587: - id18 - id48 + 2 id118 <= 0
 id590: id18 + id48 - 2 id118 <= 1
 id593: - id19 - id49 + 2 id119 <= 0
 id596: id19 + id49 - 2 id119 <= 1
 id599: - id20 - id50 + 2 id120 <= 0
 id602: id20 + id50 - 2 id120 <= 1
 id605: - id21 - id31 + 2 id121 <= 0
 id608: id21 + id31 - 2 id121 <= 1
 id611: - id22 - id32 + 2 id122 <= 0
 id614: id22 + id32 - 2 id122 <= 1
 id617: - id23 - id33 + 2 id123 <= 0
 id620: id23 + id33 - 2 id123 <= 1
 id623: - id24 - id34 + 2 id124 <= 0
 id626: id24 + id34 - 2 id124 <= 1
 id629: - id25 - id35 + 2 id125 <= 0
 id632: id25 + id35 - 2 id125 <= 1
 id635: - id26 - id36 + 2 id126 <= 0
 id638: id26 + id36 - 2 id126 <= 1
 id641: - id27 - id37 + 2 id127 <= 0
 id644: id27 + id37 - 2 id127 <= 1
 id647: - id28 - id38 + 2 id128 <= 0
 id650: id28 + id38 - 2 id128 <= 1
 id653: - id29 - id39 + 2 id129 <= 0
 id656: id29 + id39 - 2 id129 <= 1
 id659: - id30 - id40 + 2 id130 <= 0
 id662: id30 + id40 - 2 id130 <= 1
 id665: - id21 - id41 + 2 id131 <= 0
 id668: id21 + id41 - 2 id131 <= 1
 id671: - id22 - id42 + 2 id132 <= 0
 id674: id22 + id42 - 2 id132 <= 1
 id677: - id23 - id43 + 2 id133 <= 0
 id680: id23 + id43 - 2 id133 <= 1
 id683: - id24 - id44 + 2 id134 <= 0
 id686: id24 + id44 - 2 id134 <= 1
 id689: - id25 - id45 + 2 id135 <= 0
 id692: id25 + id45 - 2 id135 <= 1
 id695: - id26 - id46 + 2 id136 <= 0
 id698: id26 + id46 - 2 id136 <= 1
 id701: - id27 - id47 + 2 id137 <= 0
 id704: id27 + id47 - 2 id137 <= 1
 id707: - id28 - id48 + 2 id138 <= 0
 id710: id28 + id48 - 2 id138 <= 1
 id713: - id29 - id49 + 2 id139 <= 0
 id716: id29 + id49 - 2 id139 <= 1
 id719: - id30 - id50 + 2 id140 <= 0
 id722: id30 + id50 - 2 id140 <= 1
 id725: - id31 - id41 + 2 id141 <= 0
 id728: id31 + id41 - 2 id141 <= 1
 id731: - id32 - id42 + 2 id142 <= 0
 id734: id32 + id42 - 2 id142 <= 1
 id737: - id33 - id43 + 2 id143 <= 0
 id740: id33 + id43 - 2 id143 <= 1
 id743: - id34 - id44 + 2 id144 <= 0
 id746: id34 + id44 - 2 id144 <= 1
 id749: - id35 - id45 + 2 id145 <= 0
 id752: id35 + id45 - 2 id145 <= 1
 id755: - id36 - id46 + 2 id146 <= 0
 id758: id36 + id46 - 2 id146 <= 1
 id761: - id37 - id47 + 2 id147 <= 0
 id764: id37 + id47 - 2 id147 <= 1
 id767: - id38 - id48 + 2 id148 <= 0
 id770: id38 + id48 - 2 id148 <= 1
 id773: - id39 - id49 + 2 id149 <= 0
 id776: id39 + id49 - 2 id149 <= 1
 id779: - id40 - id50 + 2 id150 <= 0
 id782: id40 + id50 - 2 id150 <= 1
Bounds
      id783 = 0
 0 <= id1 <= 1
 0 <= id2 <= 1
 0 <= id3 <= 1
 0 <= id4 <= 1
 0 <= id5 <= 1
 0 <= id6 <= 1
 0 <= id7 <= 1
 0 <= id8 <= 1
 0 <= id9 <= 1
 0 <= id10 <= 1
 0 <= id11 <= 1
 0 <= id12 <= 1
 0 <= id13 <= 1
 0 <= id14 <= 1
 0 <= id15 <= 1
 0 <= id16 <= 1
 0 <= id17 <= 1
 0 <= id18 <= 1
 0 <= id19 <= 1
 0 <= id20 <= 1
 0 <= id21 <= 1
 0 <= id22 <= 1
 0 <= id23 <= 1
 0 <= id24 <= 1
 0 <= id25 <= 1
 0 <= id26 <= 1
 0 <= id27 <= 1
 0 <= id28 <= 1
 0 <= id29 <= 1
 0 <= id30 <= 1
 0 <= id31 <= 1
 0 <= id32 <= 1
 0 <= id33 <= 1
 0 <= id34 <= 1
 0 <= id35 <= 1
 0 <= id36 <= 1
 0 <= id37 <= 1
 0 <= id38 <= 1
 0 <= id39 <= 1
 0 <= id40 <= 1
 0 <= id41 <= 1
 0 <= id42 <= 1
 0 <= id43 <= 1
 0 <= id44 <= 1
 0 <= id45 <= 1
 0 <= id46 <= 1
 0 <= id47 <= 1
 0 <= id48 <= 1
 0 <= id49 <= 1
 0 <= id50 <= 1
 0 <= id51 <= 1
 0 <= id52 <= 1
 0 <= id53 <= 1
 0 <= id54 <= 1
 0 <= id55 <= 1
 0 <= id56 <= 1
 0 <= id57 <= 1
 0 <= id58 <= 1
 0 <= id59 <= 1
 0 <= id60 <= 1
 0 <= id61 <= 1
 0 <= id62 <= 1
 0 <= id63 <= 1
 0 <= id64 <= 1
 0 <= id65 <= 1
 0 <= id66 <= 1
 0 <= id67 <= 1
 0 <= id68 <= 1
 0 <= id69 <= 1
 0 <= id70 <= 1
 0 <= id71 <= 1
 0 <= id72 <= 1
 0 <= id73 <= 1
 0 <= id74 <= 1
 0 <= id75 <= 1
 0 <= id76 <= 1
 0 <= id77 <= 1
 0 <= id78 <= 1
 0 <= id79 <= 1
 0 <= id80 <= 1
 0 <= id81 <= 1
 0 <= id82 <= 1
 0 <= id83 <= 1
 0 <= id84 <= 1
 0 <= id85 <= 1
 0 <= id86 <= 1
 0 <= id87 <= 1
 0 <= id88 <= 1
 0 <= id89 <= 1
 0 <= id90 <= 1
 0 <= id91 <= 1
 0 <= id92 <= 1
 0 <= id93 <= 1
 0 <= id94 <= 1
 0 <= id95 <= 1
 0 <= id96 <= 1
 0 <= id97 <= 1
 0 <= id98 <= 1
 0 <= id99 <= 1
 0 <= id100 <= 1
 0 <= id101 <= 1
 0 <= id102 <= 1
 0 <= id103 <= 1
 0 <= id104 <= 1
 0 <= id105 <= 1
 0 <= id106 <= 1
 0 <= id107 <= 1
 0 <= id108 <= 1
 0 <= id109 <= 1
 0 <= id110 <= 1
 0 <= id111 <= 1
 0 <= id112 <= 1
 0 <= id113 <= 1
 0 <= id114 <= 1
 0 <= id115 <= 1
 0 <= id116 <= 1
 0 <= id117 <= 1
 0 <= id118 <= 1
 0 <= id119 <= 1
 0 <= id120 <= 1
 0 <= id121 <= 1
 0 <= id122 <= 1
 0 <= id123 <= 1
 0 <= id124 <= 1
 0 <= id125 <= 1
 0 <= id126 <= 1
 0 <= id127 <= 1
 0 <= id128 <= 1
 0 <= id129 <= 1
 0 <= id130 <= 1
 0 <= id131 <= 1
 0 <= id132 <= 1
 0 <= id133 <= 1
 0 <= id134 <= 1
 0 <= id135 <= 1
 0 <= id136 <= 1
 0 <= id137 <= 1
 0 <= id138 <= 1
 0 <= id139 <= 1
 0 <= id140 <= 1
 0 <= id141 <= 1
 0 <= id142 <= 1
 0 <= id143 <= 1
 0 <= id144 <= 1
 0 <= id145 <= 1
 0 <= id146 <= 1
 0 <= id147 <= 1
 0 <= id148 <= 1
 0 <= id149 <= 1
 0 <= id150 <= 1
Binaries
 id1  id2  id3  id4  id5  id6  id7  id8  id9  id10  id11  id12  id13  id14 
 id15  id16  id17  id18  id19  id20  id21  id22  id23  id24  id25  id26  id27 
 id28  id29  id30  id31  id32  id33  id34  id35  id36  id37  id38  id39  id40 
 id41  id42  id43  id44  id45  id46  id47  id48  id49  id50  id51  id52  id53 
 id54  id55  id56  id57  id58  id59  id60  id61  id62  id63  id64  id65  id66 
 id67  id68  id69  id70  id71  id72  id73  id74  id75  id76  id77  id78  id79 
 id80  id81  id82  id83  id84  id85  id86  id87  id88  id89  id90  id91  id92 
 id93  id94  id95  id96  id97  id98  id99  id100  id101  id102  id103  id104 
 id105  id106  id107  id108  id109  id110  id111  id112  id113  id114  id115 
 id116  id117  id118  id119  id120  id121  id122  id123  id124  id125  id126 
 id127  id128  id129  id130  id131  id132  id133  id134  id135  id136  id137 
 id138  id139  id140  id141  id142  id143  id144  id145  id146  id147  id148 
 id149  id150 
End
